p cnf 26 59
a 16 1 0
e 2 3 4 5 6 7 8 9 10 11 12 13 14 15 17 18 19 20 21 22 23 24 25 26 0
-2 1 0
-2 -1 0
4 2 0
4 3 0
-2 -3 -4 0
8 -1 0
8 7 0
1 -7 -8 0
-6 -8 -9 0
6 8 -9 0
-6 8 9 0
6 -8 9 0
-5 -9 -10 0
5 9 -10 0
-5 9 10 0
5 -9 10 0
4 10 -11 0
-4 -10 -11 0
4 -10 11 0
-4 10 11 0
-12 3 0
-12 -5 0
-3 5 12 0
-15 -13 0
-15 -14 0
13 14 15 0
-16 12 0
-16 15 0
-12 -15 16 0
17 11 0
17 -16 0
-11 16 -17 0
-19 18 0
-19 -3 0
-18 3 19 0
21 20 0
21 9 0
-20 -9 -21 0
19 -21 -22 0
-19 21 -22 0
19 21 22 0
-19 -21 22 0
-23 17 0
-23 -22 0
-17 22 23 0
24 -6 -25 0
-24 6 -25 0
24 6 25 0
-24 -6 25 0
23 -25 -26 0
-23 25 -26 0
23 25 26 0
-23 -25 26 0
5 6 21 18 25 0
-14 -1 13 0
22 -12 -7 11 24 5 0
21 19 -26 8 -1 0
12 24 7 -22 19 -4 10 0
26 0
